p tdp 20 89
1 3
1 7
1 11
1 13
1 14
1 16
1 18
1 19
2 3
2 4
2 5
2 6
2 9
2 12
2 13
2 14
2 15
2 18
2 20
3 4
3 10
3 12
3 16
3 17
3 18
3 19
4 6
4 9
4 10
4 11
4 12
4 16
5 7
5 11
5 12
5 13
5 14
5 15
5 16
5 17
5 18
5 19
5 20
6 7
6 8
6 9
6 15
6 16
6 17
7 8
7 10
7 11
7 12
7 16
7 19
8 9
8 10
8 11
8 15
8 19
8 20
9 10
9 11
9 12
9 13
9 16
9 17
10 11
10 15
10 16
10 17
10 18
10 20
11 12
11 13
12 13
12 14
12 15
12 16
12 19
12 20
14 18
14 19
14 20
15 17
16 19
17 18
17 19
17 20
